60
1242
4
73
56
77
15
0 1
0 3
0 5
0 6
0 7
0 8
0 10
0 13
0 14
0 16
0 19
0 20
0 21
0 24
0 26
0 27
0 28
0 30
0 32
0 33
0 35
0 36
0 37
0 38
0 39
0 40
0 42
0 44
0 45
0 46
0 48
0 49
0 50
0 52
0 53
0 54
0 55
0 56
0 58
0 59
1 3
1 5
1 6
1 7
1 8
1 9
1 10
1 11
1 16
1 17
1 20
1 22
1 23
1 24
1 25
1 26
1 27
1 29
1 31
1 36
1 38
1 39
1 40
1 41
1 42
1 44
1 45
1 46
1 48
1 50
1 51
1 53
1 55
1 56
1 57
1 58
2 3
2 4
2 6
2 7
2 8
2 9
2 10
2 11
2 12
2 13
2 14
2 15
2 16
2 17
2 18
2 19
2 20
2 21
2 23
2 26
2 29
2 31
2 33
2 35
2 36
2 37
2 39
2 40
2 41
2 42
2 46
2 47
2 49
2 50
2 51
2 52
2 53
2 54
2 55
2 56
2 58
2 59
3 4
3 5
3 6
3 8
3 10
3 11
3 12
3 13
3 14
3 15
3 16
3 17
3 18
3 19
3 23
3 24
3 25
3 26
3 27
3 28
3 29
3 30
3 31
3 32
3 33
3 34
3 35
3 36
3 37
3 38
3 39
3 41
3 42
3 43
3 44
3 45
3 48
3 49
3 51
3 52
3 54
3 56
3 58
3 59
4 5
4 6
4 7
4 8
4 9
4 11
4 12
4 14
4 15
4 16
4 17
4 18
4 19
4 20
4 21
4 22
4 24
4 25
4 27
4 28
4 32
4 33
4 34
4 37
4 38
4 39
4 40
4 41
4 42
4 43
4 45
4 46
4 48
4 49
4 50
4 52
4 58
5 6
5 8
5 9
5 10
5 11
5 13
5 14
5 15
5 16
5 17
5 18
5 19
5 20
5 21
5 23
5 24
5 25
5 27
5 29
5 30
5 31
5 33
5 35
5 36
5 37
5 38
5 39
5 40
5 41
5 43
5 44
5 45
5 46
5 47
5 48
5 50
5 52
5 53
5 55
5 56
5 57
5 58
6 7
6 10
6 12
6 13
6 14
6 17
6 18
6 19
6 20
6 22
6 23
6 24
6 25
6 27
6 28
6 30
6 32
6 33
6 35
6 36
6 37
6 38
6 40
6 41
6 42
6 44
6 45
6 46
6 48
6 51
6 52
6 54
6 56
6 57
6 58
6 59
7 8
7 9
7 10
7 11
7 12
7 13
7 14
7 16
7 17
7 20
7 21
7 22
7 23
7 26
7 27
7 28
7 29
7 30
7 31
7 32
7 33
7 36
7 37
7 38
7 40
7 41
7 44
7 45
7 46
7 48
7 50
7 51
7 52
7 53
7 54
7 55
7 56
7 57
7 58
7 59
8 10
8 11
8 12
8 13
8 15
8 16
8 20
8 21
8 25
8 26
8 27
8 28
8 29
8 30
8 31
8 32
8 33
8 34
8 35
8 36
8 37
8 38
8 42
8 43
8 44
8 46
8 49
8 50
8 51
8 52
8 53
8 55
8 57
9 11
9 12
9 14
9 17
9 18
9 19
9 20
9 21
9 22
9 23
9 24
9 25
9 27
9 29
9 30
9 32
9 33
9 34
9 35
9 36
9 38
9 39
9 40
9 41
9 42
9 44
9 45
9 46
9 47
9 48
9 49
9 52
9 53
9 54
9 56
9 58
9 59
10 11
10 12
10 13
10 14
10 15
10 16
10 17
10 18
10 20
10 22
10 24
10 25
10 26
10 27
10 30
10 31
10 32
10 34
10 35
10 36
10 39
10 40
10 41
10 42
10 43
10 45
10 46
10 47
10 48
10 49
10 50
10 51
10 53
10 54
10 56
10 57
10 58
10 59
11 14
11 15
11 21
11 24
11 25
11 26
11 27
11 28
11 29
11 32
11 33
11 34
11 35
11 37
11 39
11 40
11 41
11 43
11 44
11 45
11 46
11 47
11 48
11 49
11 51
11 54
11 56
11 58
11 59
12 15
12 16
12 17
12 18
12 19
12 20
12 21
12 22
12 23
12 24
12 25
12 26
12 29
12 30
12 31
12 32
12 34
12 37
12 38
12 39
12 45
12 46
12 47
12 48
12 49
12 51
12 53
12 54
12 55
12 56
12 59
13 17
13 18
13 19
13 21
13 22
13 23
13 25
13 27
13 28
13 29
13 32
13 35
13 37
13 38
13 40
13 41
13 42
13 43
13 46
13 47
13 48
13 49
13 51
13 52
13 53
13 54
13 55
13 56
13 58
13 59
14 15
14 17
14 19
14 20
14 23
14 24
14 25
14 26
14 27
14 29
14 31
14 32
14 33
14 34
14 36
14 37
14 38
14 39
14 40
14 41
14 42
14 43
14 44
14 45
14 48
14 49
14 50
14 51
14 52
14 53
14 55
14 56
14 57
14 58
14 59
15 17
15 18
15 19
15 20
15 22
15 23
15 24
15 25
15 26
15 27
15 29
15 30
15 31
15 32
15 33
15 34
15 35
15 36
15 37
15 38
15 39
15 40
15 41
15 43
15 44
15 45
15 47
15 48
15 51
15 53
15 54
15 55
15 57
15 59
16 17
16 18
16 20
16 22
16 23
16 24
16 25
16 27
16 28
16 30
16 31
16 34
16 35
16 36
16 37
16 39
16 40
16 41
16 42
16 45
16 48
16 50
16 51
16 53
16 54
16 55
16 56
16 58
17 18
17 19
17 20
17 21
17 22
17 24
17 26
17 27
17 28
17 29
17 30
17 31
17 32
17 34
17 35
17 36
17 37
17 38
17 40
17 42
17 43
17 46
17 49
17 55
17 56
17 57
17 58
17 59
18 19
18 20
18 21
18 22
18 24
18 25
18 26
18 28
18 29
18 30
18 31
18 32
18 33
18 34
18 35
18 37
18 38
18 39
18 40
18 41
18 42
18 45
18 46
18 48
18 49
18 50
18 52
18 54
18 55
18 56
18 57
18 58
19 20
19 21
19 23
19 24
19 25
19 27
19 28
19 29
19 32
19 33
19 34
19 35
19 38
19 39
19 41
19 43
19 45
19 47
19 49
19 50
19 51
19 52
19 54
19 55
19 56
19 58
19 59
20 21
20 22
20 23
20 24
20 25
20 26
20 27
20 28
20 30
20 31
20 32
20 33
20 34
20 35
20 36
20 37
20 38
20 39
20 40
20 41
20 42
20 43
20 44
20 46
20 47
20 50
20 51
20 54
20 55
20 58
20 59
21 24
21 26
21 27
21 28
21 29
21 30
21 31
21 32
21 33
21 34
21 35
21 37
21 38
21 39
21 40
21 41
21 42
21 44
21 46
21 48
21 50
21 52
21 54
21 55
21 56
21 57
21 58
21 59
22 23
22 24
22 25
22 27
22 29
22 30
22 31
22 32
22 33
22 34
22 35
22 36
22 37
22 38
22 39
22 40
22 41
22 42
22 43
22 44
22 45
22 46
22 48
22 51
22 52
22 53
22 54
22 56
22 57
22 59
23 29
23 32
23 33
23 34
23 35
23 38
23 39
23 40
23 41
23 42
23 43
23 45
23 47
23 49
23 50
23 52
23 54
23 55
23 56
23 57
23 58
23 59
24 25
24 27
24 28
24 30
24 33
24 34
24 35
24 36
24 37
24 38
24 39
24 42
24 45
24 46
24 47
24 48
24 49
24 51
24 52
24 54
24 56
24 57
24 58
25 26
25 27
25 28
25 29
25 30
25 32
25 33
25 34
25 35
25 36
25 37
25 38
25 41
25 42
25 43
25 44
25 45
25 46
25 47
25 50
25 51
25 52
25 53
25 54
25 57
25 58
26 27
26 29
26 30
26 31
26 33
26 35
26 36
26 41
26 42
26 43
26 44
26 45
26 46
26 47
26 48
26 49
26 50
26 52
26 53
26 55
26 56
26 57
26 58
27 28
27 29
27 30
27 33
27 34
27 35
27 36
27 37
27 38
27 39
27 40
27 41
27 42
27 43
27 44
27 45
27 46
27 47
27 48
27 51
27 54
27 55
28 29
28 32
28 33
28 35
28 36
28 38
28 39
28 40
28 41
28 42
28 43
28 44
28 46
28 47
28 50
28 52
28 53
28 54
28 55
28 59
29 30
29 31
29 33
29 34
29 36
29 37
29 40
29 41
29 42
29 43
29 45
29 48
29 49
29 51
29 53
29 54
29 55
29 56
29 58
29 59
30 31
30 32
30 34
30 35
30 36
30 38
30 39
30 40
30 44
30 45
30 47
30 48
30 49
30 51
30 52
30 53
30 54
30 56
30 58
31 32
31 34
31 35
31 36
31 37
31 38
31 39
31 42
31 43
31 45
31 46
31 47
31 48
31 49
31 50
31 51
31 55
31 56
31 57
31 58
32 33
32 34
32 35
32 38
32 39
32 40
32 42
32 43
32 44
32 46
32 47
32 49
32 51
32 52
32 54
32 55
32 56
32 57
32 59
33 34
33 35
33 36
33 37
33 38
33 40
33 42
33 43
33 44
33 45
33 47
33 48
33 49
33 50
33 52
33 53
33 54
33 55
33 57
33 58
33 59
34 35
34 36
34 41
34 42
34 43
34 45
34 46
34 48
34 49
34 50
34 51
34 52
34 53
34 56
34 57
34 58
35 36
35 37
35 41
35 43
35 44
35 45
35 46
35 47
35 48
35 49
35 50
35 51
35 52
35 54
35 55
35 57
35 59
36 39
36 41
36 42
36 44
36 45
36 46
36 47
36 48
36 50
36 51
36 52
36 56
36 57
36 59
37 39
37 41
37 42
37 43
37 44
37 46
37 47
37 48
37 49
37 52
37 55
37 56
37 57
37 58
37 59
38 40
38 41
38 45
38 46
38 47
38 48
38 49
38 50
38 52
38 54
38 55
38 56
38 57
38 58
38 59
39 40
39 41
39 42
39 47
39 48
39 49
39 50
39 51
39 52
39 53
39 56
39 57
39 58
40 41
40 42
40 43
40 46
40 48
40 49
40 51
40 52
40 53
40 54
40 55
40 58
41 42
41 43
41 44
41 45
41 46
41 47
41 48
41 50
41 51
41 52
41 53
41 54
41 58
41 59
42 43
42 44
42 46
42 47
42 48
42 49
42 52
42 53
42 55
42 56
42 57
42 58
43 44
43 45
43 46
43 48
43 49
43 50
43 51
43 53
43 54
43 57
43 58
43 59
44 45
44 46
44 47
44 49
44 51
44 54
44 56
44 57
44 58
45 46
45 47
45 48
45 49
45 51
45 53
45 54
45 56
45 58
45 59
46 50
46 52
46 53
46 54
46 56
46 58
46 59
47 48
47 49
47 50
47 51
47 53
47 54
47 56
47 59
48 51
48 52
48 53
48 54
48 56
48 57
48 58
49 53
49 55
49 57
49 58
49 59
50 51
50 52
50 53
50 55
50 56
50 57
50 58
51 53
51 54
51 55
51 57
51 58
51 59
52 53
52 55
52 56
52 58
52 59
53 55
53 57
53 58
53 59
54 56
54 58
55 56
55 57
55 58
55 59
56 57
56 58
56 59
57 58
58 59
0 44 49 30 29 52 48 54 12 14 1 33 59 13 41 39 32 22
18 51 46 23 57 19 17 42 10 37 21 27 47 58 26 45 8 35
16 50 4 7 24 6 38 43 34 55 3 20 2 40 28 9 11 36
25 53 5 56 15 31
